Problem:    Antitrust2
Rows:       13
Columns:    14 (7 integer, 7 binary)
Non-zeros:  67
Status:     INTEGER OPTIMAL
Objective:  z = 30 (MINimum)

   No.   Row name        Activity     Lower bound   Upper bound
------ ------------    ------------- ------------- -------------
     1 def_fatt1[1]                0            -0             = 
     2 def_fatt1[2]                0            -0             = 
     3 def_fatt1[3]                0            -0             = 
     4 def_fatt2[1]             -344          -344             = 
     5 def_fatt2[2]             -293          -293             = 
     6 def_fatt2[3]             -356          -356             = 
     7 z                          30                             
     8 lin1[1]                    26            -0               
     9 lin1[2]                    51            -0               
    10 lin1[3]                     0            -0               
    11 lin2[1]                    34            -0               
    12 lin2[2]                     9            -0               
    13 lin2[3]                    60            -0               

   No. Column name       Activity     Lower bound   Upper bound
------ ------------    ------------- ------------- -------------
     1 x[1]         *              1             0             1 
     2 x[2]         *              1             0             1 
     3 x[3]         *              1             0             1 
     4 x[4]         *              0             0             1 
     5 x[5]         *              1             0             1 
     6 x[6]         *              0             0             1 
     7 x[7]         *              0             0             1 
     8 fatturato1[1]
                                 174             0               
     9 fatturato1[2]
                                 136             0               
    10 fatturato1[3]
                                 193             0               
    11 fatturato2[1]
                                 170             0               
    12 fatturato2[2]
                                 157             0               
    13 fatturato2[3]
                                 163             0               
    14 alfa                       30             0               

Integer feasibility conditions:

KKT.PE: max.abs.err = 0.00e+000 on row 0
        max.rel.err = 0.00e+000 on row 0
        High quality

KKT.PB: max.abs.err = 0.00e+000 on row 0
        max.rel.err = 0.00e+000 on row 0
        High quality

End of output
